p cnf 14 64
4 9 12 0
-3 4 -12 0
1 -2 10 0
7 -8 14 0
-1 -5 8 0
-2 -10 -11 0
8 -9 10 0
2 -3 -7 0
2 6 -9 0
-8 9 12 0
-4 7 -9 0
-1 -9 -12 0
-1 -4 8 0
6 -8 11 0
-3 -4 14 0
-4 5 -9 0
1 7 -8 0
2 -5 7 0
8 -11 -13 0
-6 -7 -8 0
3 -6 10 0
-1 -5 11 0
-4 8 9 0
-8 -13 14 0
-7 -9 12 0
7 8 -9 0
-2 -3 -8 0
-2 -8 -11 0
-2 8 -9 0
-2 -3 12 0
-7 -9 -11 0
5 6 11 0
2 -10 -11 0
-11 12 13 0
-2 -3 -9 0
1 10 12 0
-3 -5 -7 0
1 9 -11 0
-1 3 -11 0
4 6 -12 0
-1 10 -14 0
4 13 14 0
2 -5 6 0
-2 -7 10 0
3 -8 -14 0
6 8 11 0
-6 9 12 0
-1 -6 -8 0
6 9 13 0
1 5 -6 0
-1 -4 -8 0
2 11 -14 0
-2 -6 -11 0
-4 8 13 0
-8 -9 13 0
-3 -4 6 0
2 -3 -9 0
1 10 -14 0
10 -12 -14 0
3 -9 12 0
1 -13 -14 0
-4 -9 -12 0
-6 13 14 0
6 -11 14 0
